10
0 26 54 68 16 37 55 21 40 19 
26 0 52 59 32 47 52 43 34 41 
54 52 0 19 39 24 4 47 18 48 
68 59 19 0 55 43 16 64 27 65 
16 32 39 55 0 21 41 13 29 12 
37 47 24 43 21 0 27 24 25 26 
55 52 4 16 41 27 0 49 18 50 
21 43 47 64 13 24 49 0 40 3 
40 34 18 27 29 25 18 40 0 40 
19 41 48 65 12 26 50 3 40 0 
